197 157 147 169 161
121 140 191 197 145
124 141 120 196 218
143 191 136 135 204
112 191 158 177 184
167 150 185 191 149
104 199 148 128 145
178 125 111 135 208
146 158 162 192 136
146 193 144 162 195
106 106 127 154 188
160 163 202 205 208
